c defined variables: 19 20 21 22 23 24 25 26 27 28 29 30 31 32 33 34 35 36 37 38 39 40 41 42 43 44 45 48 49 50 51 52 53 54 55 56 57 58 59 60 61 62 63 64 65 66 67 68 69 70 71 72 73 74 75 76 77 78 79 80 81 82 83 84 85 86 88 89 90 91 92 93 94 95 96 97 98 99 100 101 102 103 104 105 106 107 108 109 110 111 112 113 114 115 116 117 118 119 120 121 122 123 124 
p cnf 541 814
a 1 3 4 5 6 7 8 9 10 11 12 13 14 15 16 0
e 46 47 87 19 20 21 22 23 24 25 26 27 28 29 30 31 32 33 34 35 36 37 38 39 40 41 42 43 44 45 48 49 50 51 52 53 54 55 56 57 58 59 60 61 62 63 64 65 66 67 68 69 70 71 72 73 74 75 76 77 78 79 80 81 82 83 84 85 86 88 89 90 91 92 93 94 95 96 97 98 99 100 101 102 103 104 105 106 107 108 109 110 111 112 113 114 115 116 117 118 119 120 121 122 123 124 445 446 447 448 449 450 451 452 453 454 455 456 457 458 459 460 461 462 463 464 465 466 467 468 469 470 471 472 473 474 475 476 477 478 479 480 481 482 483 484 485 486 487 488 489 490 491 492 493 494 495 496 497 498 499 500 501 502 503 504 505 506 507 508 509 510 511 512 513 514 515 516 517 518 519 520 521 522 523 524 525 526 527 528 529 530 531 532 533 534 535 536 537 538 539 540 541 0
d 2 1 3 4 5 6 7 8 9 0
d 17 3 4 5 6 7 8 9 0
d 18 10 11 12 13 14 15 16 0
446 -19 0
-446 19 0
447 -20 0
-447 20 0
448 -21 0
-448 21 0
449 -22 0
-449 22 0
450 -23 0
-450 23 0
451 -24 0
-451 24 0
452 -25 0
-452 25 0
453 -26 0
-453 26 0
454 -27 0
-454 27 0
455 -28 0
-455 28 0
456 -29 0
-456 29 0
457 -30 0
-457 30 0
458 -31 0
-458 31 0
459 -32 0
-459 32 0
460 -33 0
-460 33 0
461 -34 0
-461 34 0
462 -35 0
-462 35 0
463 -36 0
-463 36 0
464 -37 0
-464 37 0
465 -38 0
-465 38 0
466 -39 0
-466 39 0
467 -40 0
-467 40 0
468 -41 0
-468 41 0
469 -42 0
-469 42 0
470 -43 0
-470 43 0
471 -44 0
-471 44 0
472 -45 0
-472 45 0
473 -48 0
-473 48 0
-445 -49 0
445 49 0
474 -50 0
-474 50 0
475 -51 0
-475 51 0
476 -52 0
-476 52 0
477 -53 0
-477 53 0
478 -54 0
-478 54 0
479 -55 0
-479 55 0
480 -56 0
-480 56 0
481 -57 0
-481 57 0
482 -58 0
-482 58 0
483 -59 0
-483 59 0
484 -60 0
-484 60 0
485 -61 0
-485 61 0
486 -62 0
-486 62 0
487 -63 0
-487 63 0
488 -64 0
-488 64 0
489 -65 0
-489 65 0
490 -66 0
-490 66 0
491 -67 0
-491 67 0
492 -68 0
-492 68 0
493 -69 0
-493 69 0
494 -70 0
-494 70 0
-495 -71 0
495 71 0
496 -72 0
-496 72 0
497 -73 0
-497 73 0
498 -74 0
-498 74 0
499 -75 0
-499 75 0
500 -76 0
-500 76 0
501 -77 0
-501 77 0
502 -78 0
-502 78 0
503 -79 0
-503 79 0
504 -80 0
-504 80 0
505 -81 0
-505 81 0
506 -82 0
-506 82 0
507 -83 0
-507 83 0
508 -84 0
-508 84 0
509 -85 0
-509 85 0
510 -86 0
-510 86 0
511 -88 0
-511 88 0
512 -89 0
-512 89 0
-513 -90 0
513 90 0
514 -91 0
-514 91 0
515 -92 0
-515 92 0
516 -93 0
-516 93 0
517 -94 0
-517 94 0
-518 -95 0
518 95 0
519 -96 0
-519 96 0
520 -97 0
-520 97 0
521 -98 0
-521 98 0
522 -99 0
-522 99 0
523 -100 0
-523 100 0
524 -101 0
-524 101 0
525 -102 0
-525 102 0
-526 -103 0
526 103 0
527 -104 0
-527 104 0
528 -105 0
-528 105 0
529 -106 0
-529 106 0
530 -107 0
-530 107 0
531 -108 0
-531 108 0
532 -109 0
-532 109 0
533 -110 0
-533 110 0
534 -111 0
-534 111 0
535 -112 0
-535 112 0
-445 -113 0
445 113 0
-445 -114 0
445 114 0
536 -115 0
-536 115 0
537 -116 0
-537 116 0
538 -117 0
-538 117 0
539 -118 0
-539 118 0
540 -119 0
-540 119 0
541 -120 0
-541 120 0
-445 -121 0
445 121 0
445 -122 0
-445 122 0
445 -123 0
-445 123 0
445 -124 0
-445 124 0
-19 -10 0
-19 3 0
19 10 -3 0
-20 10 0
-20 -3 0
20 -10 3 0
-21 -19 0
-21 -20 0
21 19 20 0
-22 -11 0
-22 4 0
22 11 -4 0
-23 11 0
-23 -4 0
23 -11 4 0
-24 -22 0
-24 -23 0
24 22 23 0
-25 21 0
-25 24 0
25 -21 -24 0
-26 -12 0
-26 5 0
26 12 -5 0
-27 12 0
-27 -5 0
27 -12 5 0
-28 -26 0
-28 -27 0
28 26 27 0
-29 -13 0
-29 6 0
29 13 -6 0
-30 13 0
-30 -6 0
30 -13 6 0
-31 -29 0
-31 -30 0
31 29 30 0
-32 28 0
-32 31 0
32 -28 -31 0
-33 25 0
-33 32 0
33 -25 -32 0
-34 -16 0
-34 9 0
34 16 -9 0
-35 16 0
-35 -9 0
35 -16 9 0
-36 -34 0
-36 -35 0
36 34 35 0
-37 -14 0
-37 7 0
37 14 -7 0
-38 14 0
-38 -7 0
38 -14 7 0
-39 -37 0
-39 -38 0
39 37 38 0
-40 -15 0
-40 8 0
40 15 -8 0
-41 15 0
-41 -8 0
41 -15 8 0
-42 -40 0
-42 -41 0
42 40 41 0
-43 39 0
-43 42 0
43 -39 -42 0
-44 36 0
-44 43 0
44 -36 -43 0
-45 33 0
-45 44 0
45 -33 -44 0
-46 18 0
-46 -17 0
46 -18 17 0
-47 -18 0
-47 17 0
47 18 -17 0
-48 -46 0
-48 -47 0
48 46 47 0
-49 45 0
-49 -48 0
49 -45 48 0
-50 4 0
-50 3 0
50 -4 -3 0
-51 -1 0
-51 -50 0
51 1 50 0
-52 1 0
-52 50 0
52 -1 -50 0
-53 -51 0
-53 -52 0
53 51 52 0
-54 -11 0
-54 -53 0
54 11 53 0
-55 11 0
-55 53 0
55 -11 -53 0
-56 -54 0
-56 -55 0
56 54 55 0
-57 10 0
-57 56 0
57 -10 -56 0
-58 -5 0
-58 50 0
58 5 -50 0
-59 -1 0
-59 58 0
59 1 -58 0
-60 5 0
-60 3 0
60 -5 -3 0
-61 4 0
-61 -1 0
61 -4 1 0
-62 60 0
-62 -61 0
62 -60 61 0
-63 -59 0
-63 -62 0
63 59 62 0
-64 -12 0
-64 -63 0
64 12 63 0
-65 12 0
-65 63 0
65 -12 -63 0
-66 -64 0
-66 -65 0
66 64 65 0
-67 4 0
-67 60 0
67 -4 -60 0
-68 6 0
-68 3 0
68 -6 -3 0
-69 67 0
-69 68 0
69 -67 -68 0
-70 -67 0
-70 -68 0
70 67 68 0
71 -69 0
71 -70 0
-71 69 70 0
-72 -1 0
-72 -71 0
72 1 71 0
-73 1 0
-73 68 0
73 -1 -68 0
-74 -72 0
-74 -73 0
74 72 73 0
-75 -13 0
-75 -74 0
75 13 74 0
-76 13 0
-76 74 0
76 -13 -74 0
-77 -75 0
-77 -76 0
77 75 76 0
-78 66 0
-78 77 0
78 -66 -77 0
-79 57 0
-79 78 0
79 -57 -78 0
-80 7 0
-80 3 0
80 -7 -3 0
-81 69 0
-81 80 0
81 -69 -80 0
-82 8 0
-82 3 0
82 -8 -3 0
-83 81 0
-83 82 0
83 -81 -82 0
-84 9 0
-84 3 0
84 -9 -3 0
-85 83 0
-85 84 0
85 -83 -84 0
-86 -1 0
-86 85 0
86 1 -85 0
-87 -2 0
-87 83 0
87 2 -83 0
-88 -1 0
-88 87 0
88 1 -87 0
-89 -84 0
-89 -88 0
89 84 88 0
90 -86 0
90 -89 0
-90 86 89 0
-91 -16 0
-91 -90 0
91 16 90 0
-92 16 0
-92 90 0
92 -16 -90 0
-93 -91 0
-93 -92 0
93 91 92 0
-94 -69 0
-94 -80 0
94 69 80 0
95 -81 0
95 -94 0
-95 81 94 0
-96 -1 0
-96 -95 0
96 1 95 0
-97 1 0
-97 80 0
97 -1 -80 0
-98 -96 0
-98 -97 0
98 96 97 0
-99 -14 0
-99 -98 0
99 14 98 0
-100 14 0
-100 98 0
100 -14 -98 0
-101 -99 0
-101 -100 0
101 99 100 0
-102 -81 0
-102 -82 0
102 81 82 0
103 -83 0
103 -102 0
-103 83 102 0
-104 -1 0
-104 -103 0
104 1 103 0
-105 1 0
-105 82 0
105 -1 -82 0
-106 -104 0
-106 -105 0
106 104 105 0
-107 -15 0
-107 -106 0
107 15 106 0
-108 15 0
-108 106 0
108 -15 -106 0
-109 -107 0
-109 -108 0
109 107 108 0
-110 101 0
-110 109 0
110 -101 -109 0
-111 93 0
-111 110 0
111 -93 -110 0
-112 79 0
-112 111 0
112 -79 -111 0
-113 112 0
-113 47 0
113 -112 -47 0
-114 17 0
-114 85 0
114 -17 -85 0
-115 -4 0
-115 -3 0
115 4 3 0
-116 -6 0
-116 -5 0
116 6 5 0
-117 115 0
-117 116 0
117 -115 -116 0
-118 -8 0
-118 -7 0
118 8 7 0
-119 -9 0
-119 118 0
119 9 -118 0
-120 117 0
-120 119 0
120 -117 -119 0
-121 -17 0
-121 120 0
121 17 -120 0
-122 -114 0
-122 -121 0
122 114 121 0
-123 -113 0
-123 122 0
123 113 -122 0
-124 -49 0
-124 123 0
124 49 -123 0
124 0
445 0
3 -446 0
-10 -446 0
-3 10 446 0
-3 -447 0
10 -447 0
3 -10 447 0
-19 -448 0
-20 -448 0
19 20 448 0
4 -449 0
-11 -449 0
-4 11 449 0
-4 -450 0
11 -450 0
4 -11 450 0
-22 -451 0
-23 -451 0
22 23 451 0
21 -452 0
24 -452 0
-21 -24 452 0
5 -453 0
-12 -453 0
-5 12 453 0
-5 -454 0
12 -454 0
5 -12 454 0
-26 -455 0
-27 -455 0
26 27 455 0
6 -456 0
-13 -456 0
-6 13 456 0
-6 -457 0
13 -457 0
6 -13 457 0
-29 -458 0
-30 -458 0
29 30 458 0
28 -459 0
31 -459 0
-28 -31 459 0
25 -460 0
32 -460 0
-25 -32 460 0
9 -461 0
-16 -461 0
-9 16 461 0
-9 -462 0
16 -462 0
9 -16 462 0
-34 -463 0
-35 -463 0
34 35 463 0
7 -464 0
-14 -464 0
-7 14 464 0
-7 -465 0
14 -465 0
7 -14 465 0
-37 -466 0
-38 -466 0
37 38 466 0
8 -467 0
-15 -467 0
-8 15 467 0
-8 -468 0
15 -468 0
8 -15 468 0
-40 -469 0
-41 -469 0
40 41 469 0
39 -470 0
42 -470 0
-39 -42 470 0
36 -471 0
43 -471 0
-36 -43 471 0
33 -472 0
44 -472 0
-33 -44 472 0
-46 -473 0
-47 -473 0
46 47 473 0
3 -474 0
4 -474 0
-3 -4 474 0
-1 -475 0
-50 -475 0
1 50 475 0
1 -476 0
50 -476 0
-1 -50 476 0
-51 -477 0
-52 -477 0
51 52 477 0
-11 -478 0
-53 -478 0
11 53 478 0
11 -479 0
53 -479 0
-11 -53 479 0
-54 -480 0
-55 -480 0
54 55 480 0
10 -481 0
56 -481 0
-10 -56 481 0
-5 -482 0
50 -482 0
5 -50 482 0
-1 -483 0
58 -483 0
1 -58 483 0
3 -484 0
5 -484 0
-3 -5 484 0
-1 -485 0
4 -485 0
1 -4 485 0
60 -486 0
-61 -486 0
-60 61 486 0
-59 -487 0
-62 -487 0
59 62 487 0
-12 -488 0
-63 -488 0
12 63 488 0
12 -489 0
63 -489 0
-12 -63 489 0
-64 -490 0
-65 -490 0
64 65 490 0
4 -491 0
60 -491 0
-4 -60 491 0
3 -492 0
6 -492 0
-3 -6 492 0
67 -493 0
68 -493 0
-67 -68 493 0
-67 -494 0
-68 -494 0
67 68 494 0
-69 -495 0
-70 -495 0
69 70 495 0
-1 -496 0
-71 -496 0
1 71 496 0
1 -497 0
68 -497 0
-1 -68 497 0
-72 -498 0
-73 -498 0
72 73 498 0
-13 -499 0
-74 -499 0
13 74 499 0
13 -500 0
74 -500 0
-13 -74 500 0
-75 -501 0
-76 -501 0
75 76 501 0
66 -502 0
77 -502 0
-66 -77 502 0
57 -503 0
78 -503 0
-57 -78 503 0
3 -504 0
7 -504 0
-3 -7 504 0
69 -505 0
80 -505 0
-69 -80 505 0
3 -506 0
8 -506 0
-3 -8 506 0
81 -507 0
82 -507 0
-81 -82 507 0
3 -508 0
9 -508 0
-3 -9 508 0
83 -509 0
84 -509 0
-83 -84 509 0
-1 -510 0
85 -510 0
1 -85 510 0
-1 -511 0
87 -511 0
1 -87 511 0
-84 -512 0
-88 -512 0
84 88 512 0
-86 -513 0
-89 -513 0
86 89 513 0
-16 -514 0
-90 -514 0
16 90 514 0
16 -515 0
90 -515 0
-16 -90 515 0
-91 -516 0
-92 -516 0
91 92 516 0
-69 -517 0
-80 -517 0
69 80 517 0
-81 -518 0
-94 -518 0
81 94 518 0
-1 -519 0
-95 -519 0
1 95 519 0
1 -520 0
80 -520 0
-1 -80 520 0
-96 -521 0
-97 -521 0
96 97 521 0
-14 -522 0
-98 -522 0
14 98 522 0
14 -523 0
98 -523 0
-14 -98 523 0
-99 -524 0
-100 -524 0
99 100 524 0
-81 -525 0
-82 -525 0
81 82 525 0
-83 -526 0
-102 -526 0
83 102 526 0
-1 -527 0
-103 -527 0
1 103 527 0
1 -528 0
82 -528 0
-1 -82 528 0
-104 -529 0
-105 -529 0
104 105 529 0
-15 -530 0
-106 -530 0
15 106 530 0
15 -531 0
106 -531 0
-15 -106 531 0
-107 -532 0
-108 -532 0
107 108 532 0
101 -533 0
109 -533 0
-101 -109 533 0
93 -534 0
110 -534 0
-93 -110 534 0
79 -535 0
111 -535 0
-79 -111 535 0
-3 -536 0
-4 -536 0
3 4 536 0
-5 -537 0
-6 -537 0
5 6 537 0
115 -538 0
116 -538 0
-115 -116 538 0
-7 -539 0
-8 -539 0
7 8 539 0
-9 -540 0
118 -540 0
9 -118 540 0
117 -541 0
119 -541 0
-117 -119 541 0
